9664 21679
51070 37519
14398 8861
8357 48493
62044 53621
47734 47700
22124 4506
7786 31624
33850 54001
21629 50846
23071 46037
41078 47636
30160 29169
41133 8006
58497 62348
13485 37649
56265 62207
39184 613
163 63174
40649 9911
35131 8702
32796 17559
35188 27579
10612 430
15783 11528
40485 26124
39672 37077
5209 28218
19347 37157
26294 46872
51921 65500
32819 47498
50697 22123
63520 42590
28492 45300
24294 50719
49653 60534
